unsat
(define-fun f ((x (_ BitVec 64))) (_ BitVec 64) (let ((_let_1 (ehad x))) (let ((_let_2 (bvor x _let_1))) (im (bvand #b0000000000000000000000000000000000000000000000000000000000000001 _let_1) (im (bvand #b0000000000000000000000000000000000000000000000000000000000000001 x) _let_1 _let_2) (im (bvand x #b0000000000000000000000000000000000000000000000000000000000000011) _let_1 _let_2)))))
0.07user 0.00system 0:00.08elapsed 100%CPU (0avgtext+0avgdata 29384maxresident)k
0inputs+8outputs (0major+1968minor)pagefaults 0swaps
